/* Objective function */ 
min: 7 x1 + 7 x2 + 7 x3 + 10 x14 + 10 x15 + 10 11 x25 11 11 x36 + 11 11 x47 + 11 11 x58 + 11 x26 + 11 x37 + 11 x48 + 11 x59+ 11
7 x4 +7x5+ 7 x6 + 7 x7 + 7 x8 + 7 x9 + 10 x10 + 10 x16 + 10 x17+ 10 x18+ 10 x19 10 x20 + 11 x21 + 11 x27 + 11 x28 + 11 x29 + 11 x30 + 11 x31 + 11 x32 + 11 x38 + 11 x39 + 11 x40 + 11 x41 + 11 x42 + 11 x43 + 11 x49 + 11 x50 + 11 x51 + 11 x52 + 11 x53 + 11 x54 + 11 x60 + 11 x61;
x11 + 10 x12 + 10 x13 + x22 + 11 x23 + 11 x24 + x33 + 11 x34+ 11 x35 + x44 + 11 x45 + 11 x46 + x55 + 11 x56 + 11 x57 + 

//Itens
t1: x1 + x2 + x3 + 2 x4 +2 x5 + 2 x6 + x10 + x11 + x12 +2 x13 + 2 x14 + 2 x15 + x21 + 2 x23 + x26 + 2 x27 + x28 + 2 x30 + x31 + x33 + x34 + 2 x36 + x37 + x39 + x40 +2 x41 + 2 x45x46 + x472x48 + x49 + 2 x51 + x52 + 2 x54 + x55 + 2 x57 + x58 + 2 x60x61 = 2;
t2: x1 + 3 x2 + 2 x6 + x7 +x8 + 3 x9 + 2 x10 + 2 x11 + x13 + 2 x14 + 4 x15x16 + 2 x17+ 3 x18 + x24 + 2 x27+ 2 x28 + 2 x29 + x30 + x31 + x32 +x34+x35 + 3 x39 + 2 x40 + 2 x41 + 3 x42 + 2 x43 + x445x47 + 4 x48 + 4 x49 + 4 x50 + 3 x51 + 3 x52 + 3 x53 + 2 x54 + 2 x55 +2 x56 +x57 + x58+ x59 = 11;
t4: x1 + x4 + x7 + x10x12x14 +2 x16 + x18x19 + x23 + x24 + x25 + x26 + 2 x34 +2 x35 + 2 x36 + 2 x37 + 2 x38x39 + x40 + x41 + x42 + x43 + x44 + x45 + x46 = 11;
t5: x3 + x5 +x8 + x11x12 + x13x17 + x19 + 2 x20 + 2 x21 + 2 x22 + x23 + x24 + x25 + x26 + x27 + x28 + x29 + x30x31 + x32 + x33 = 5;

//Contentores
c7: x1 + x2 + x3 + x4 + x5 + x6 + x7 + x8 + x9 = 3;
c10: x10 + x11 + x12 + x13 + x14 + x15 +x16 + x17 + x18 + x19 + x20 = 6;


//Restrição Adicional
int x1, x2, x3, x4, x5, x6, x7,x8, x9,x10,x11,x12,x13,x14, x15, x16, x17,x18,x19,x20,x21,x22,x23,x24,x25,x26,x27,x28,x29,x30, x31,x32, x33,x34, x35,x36, x37,x38,x39,x40,x41,x42,x43, x44, x45, x46, x47,x48,x49,x50, x51,x52, x53, x54, x55,x56, x57,x58, x59,x60,x61;